column=8;
row=8;
Board=[|3,1,0,0,4,0,6,0|0,0,0,0,0,0,0,0|8,7,0,0,0,6,4,0|5,4,0,0,0,2,0,0|1,0,4,0,5,7,2,0|0,0,0,4,8,0,5,0|0,5,0,8,7,0,1,0|0,3,0,5,2,0,7,8|];
horizontal=[|0,1,0,1,0,2,0|2,0,0,0,0,0,0|2,0,0,1,0,2,1|0,0,2,2,2,0,0|1,0,0,0,0,0,0|0,1,2,1,0,0,0|0,0,0,2,0,0,0|2,0,0,2,0,1,0|];
vertical=[|1,0,2,1,0,2,0,0|0,0,2,0,0,1,0,1|0,2,1,0,0,0,0,2|0,0,0,0,0,0,2,1|1,2,0,0,1,0,0,2|1,2,0,0,0,0,2,0|0,2,2,0,0,1,1,1|];
